predicate knapsackChoco(array [int] of int: w,array [int] of int: p,array [int] of var int: x,var int: W,var int: P);
array [1..106] of int: X_INTRODUCED_318_ = [1,-41850,-38261,-23800,-21697,-7074,-5587,-5560,-5500,-3450,-2391,-761,-460,-367,-24785,-47910,-30250,-107200,-4235,-9835,-9262,-15000,-6399,-6155,-10874,-37100,-27040,-4117,-32240,-1600,-4500,-70610,-6570,-15290,-23840,-16500,-7010,-16020,-8000,-31026,-2568,-2365,-4350,-1972,-4975,-29400,-7471,-2700,-3840,-22400,-3575,-13500,-1125,-11950,-12753,-10568,-15600,-20652,-13150,-2900,-1790,-4970,-5770,-8180,-2450,-7140,-12470,-6010,-16000,-11100,-11093,-4685,-2590,-11500,-5820,-2842,-5000,-3300,-2800,-5420,-900,-13300,-8450,-5300,-750,-1435,-2100,-7215,-2605,-2422,-5500,-8550,-2700,-540,-2550,-2450,-725,-445,-700,-1720,-2675,-220,-300,-405,-150,-70];
array [1..105] of int: X_INTRODUCED_319_ = [75,40,365,95,25,17,125,20,22,84,75,50,15,0,0,12,0,10,0,50,0,0,10,0,0,50,60,150,0,0,75,0,102,0,0,40,60,0,165,0,0,0,45,0,0,0,25,0,150,0,0,0,158,0,85,95,0,89,20,0,0,0,0,0,0,80,0,110,0,15,0,60,5,135,0,0,25,0,300,35,100,0,0,25,0,0,225,25,0,0,0,0,0,0,0,5,0,60,0,100,0,0,0,0,0];
array [1..105] of int: X_INTRODUCED_320_ = [41850,38261,23800,21697,7074,5587,5560,5500,3450,2391,761,460,367,24785,47910,30250,107200,4235,9835,9262,15000,6399,6155,10874,37100,27040,4117,32240,1600,4500,70610,6570,15290,23840,16500,7010,16020,8000,31026,2568,2365,4350,1972,4975,29400,7471,2700,3840,22400,3575,13500,1125,11950,12753,10568,15600,20652,13150,2900,1790,4970,5770,8180,2450,7140,12470,6010,16000,11100,11093,4685,2590,11500,5820,2842,5000,3300,2800,5420,900,13300,8450,5300,750,1435,2100,7215,2605,2422,5500,8550,2700,540,2550,2450,725,445,700,1720,2675,220,300,405,150,70];
array [1..105] of int: X_INTRODUCED_321_ = [0,0,0,0,0,0,0,0,0,0,0,0,0,5,10,10,50,2,5,5,10,5,6,11,41,30,5,40,2,6,100,10,25,39,30,13,30,15,60,5,5,10,5,15,91,24,10,15,90,15,60,5,55,60,50,75,100,65,15,10,30,35,50,15,45,80,40,110,80,80,36,20,90,50,25,50,35,30,60,10,150,110,70,10,20,30,104,40,40,94,150,50,10,50,50,16,10,20,50,90,10,15,39,20,20];
var 0..1: X_INTRODUCED_0_;
var 0..1: X_INTRODUCED_1_;
var 0..1: X_INTRODUCED_2_;
var 0..1: X_INTRODUCED_3_;
var 0..1: X_INTRODUCED_4_;
var 0..1: X_INTRODUCED_5_;
var 0..1: X_INTRODUCED_6_;
var 0..1: X_INTRODUCED_7_;
var 0..1: X_INTRODUCED_8_;
var 0..1: X_INTRODUCED_9_;
var 0..1: X_INTRODUCED_10_;
var 0..1: X_INTRODUCED_11_;
var 0..1: X_INTRODUCED_12_;
var 0..1: X_INTRODUCED_13_;
var 0..1: X_INTRODUCED_14_;
var 0..1: X_INTRODUCED_15_;
var 0..1: X_INTRODUCED_16_;
var 0..1: X_INTRODUCED_17_;
var 0..1: X_INTRODUCED_18_;
var 0..1: X_INTRODUCED_19_;
var 0..1: X_INTRODUCED_20_;
var 0..1: X_INTRODUCED_21_;
var 0..1: X_INTRODUCED_22_;
var 0..1: X_INTRODUCED_23_;
var 0..1: X_INTRODUCED_24_;
var 0..1: X_INTRODUCED_25_;
var 0..1: X_INTRODUCED_26_;
var 0..1: X_INTRODUCED_27_;
var 0..1: X_INTRODUCED_28_;
var 0..1: X_INTRODUCED_29_;
var 0..1: X_INTRODUCED_30_;
var 0..1: X_INTRODUCED_31_;
var 0..1: X_INTRODUCED_32_;
var 0..1: X_INTRODUCED_33_;
var 0..1: X_INTRODUCED_34_;
var 0..1: X_INTRODUCED_35_;
var 0..1: X_INTRODUCED_36_;
var 0..1: X_INTRODUCED_37_;
var 0..1: X_INTRODUCED_38_;
var 0..1: X_INTRODUCED_39_;
var 0..1: X_INTRODUCED_40_;
var 0..1: X_INTRODUCED_41_;
var 0..1: X_INTRODUCED_42_;
var 0..1: X_INTRODUCED_43_;
var 0..1: X_INTRODUCED_44_;
var 0..1: X_INTRODUCED_45_;
var 0..1: X_INTRODUCED_46_;
var 0..1: X_INTRODUCED_47_;
var 0..1: X_INTRODUCED_48_;
var 0..1: X_INTRODUCED_49_;
var 0..1: X_INTRODUCED_50_;
var 0..1: X_INTRODUCED_51_;
var 0..1: X_INTRODUCED_52_;
var 0..1: X_INTRODUCED_53_;
var 0..1: X_INTRODUCED_54_;
var 0..1: X_INTRODUCED_55_;
var 0..1: X_INTRODUCED_56_;
var 0..1: X_INTRODUCED_57_;
var 0..1: X_INTRODUCED_58_;
var 0..1: X_INTRODUCED_59_;
var 0..1: X_INTRODUCED_60_;
var 0..1: X_INTRODUCED_61_;
var 0..1: X_INTRODUCED_62_;
var 0..1: X_INTRODUCED_63_;
var 0..1: X_INTRODUCED_64_;
var 0..1: X_INTRODUCED_65_;
var 0..1: X_INTRODUCED_66_;
var 0..1: X_INTRODUCED_67_;
var 0..1: X_INTRODUCED_68_;
var 0..1: X_INTRODUCED_69_;
var 0..1: X_INTRODUCED_70_;
var 0..1: X_INTRODUCED_71_;
var 0..1: X_INTRODUCED_72_;
var 0..1: X_INTRODUCED_73_;
var 0..1: X_INTRODUCED_74_;
var 0..1: X_INTRODUCED_75_;
var 0..1: X_INTRODUCED_76_;
var 0..1: X_INTRODUCED_77_;
var 0..1: X_INTRODUCED_78_;
var 0..1: X_INTRODUCED_79_;
var 0..1: X_INTRODUCED_80_;
var 0..1: X_INTRODUCED_81_;
var 0..1: X_INTRODUCED_82_;
var 0..1: X_INTRODUCED_83_;
var 0..1: X_INTRODUCED_84_;
var 0..1: X_INTRODUCED_85_;
var 0..1: X_INTRODUCED_86_;
var 0..1: X_INTRODUCED_87_;
var 0..1: X_INTRODUCED_88_;
var 0..1: X_INTRODUCED_89_;
var 0..1: X_INTRODUCED_90_;
var 0..1: X_INTRODUCED_91_;
var 0..1: X_INTRODUCED_92_;
var 0..1: X_INTRODUCED_93_;
var 0..1: X_INTRODUCED_94_;
var 0..1: X_INTRODUCED_95_;
var 0..1: X_INTRODUCED_96_;
var 0..1: X_INTRODUCED_97_;
var 0..1: X_INTRODUCED_98_;
var 0..1: X_INTRODUCED_99_;
var 0..1: X_INTRODUCED_100_;
var 0..1: X_INTRODUCED_101_;
var 0..1: X_INTRODUCED_102_;
var 0..1: X_INTRODUCED_103_;
var 0..1: X_INTRODUCED_104_;
var 0..500: X_INTRODUCED_105_;
var 0..500: X_INTRODUCED_106_;
var 0..1123047: objective:: output_var:: is_defined_var;
array [1..105] of var int: x:: output_array([1..105]) = [X_INTRODUCED_0_,X_INTRODUCED_1_,X_INTRODUCED_2_,X_INTRODUCED_3_,X_INTRODUCED_4_,X_INTRODUCED_5_,X_INTRODUCED_6_,X_INTRODUCED_7_,X_INTRODUCED_8_,X_INTRODUCED_9_,X_INTRODUCED_10_,X_INTRODUCED_11_,X_INTRODUCED_12_,X_INTRODUCED_13_,X_INTRODUCED_14_,X_INTRODUCED_15_,X_INTRODUCED_16_,X_INTRODUCED_17_,X_INTRODUCED_18_,X_INTRODUCED_19_,X_INTRODUCED_20_,X_INTRODUCED_21_,X_INTRODUCED_22_,X_INTRODUCED_23_,X_INTRODUCED_24_,X_INTRODUCED_25_,X_INTRODUCED_26_,X_INTRODUCED_27_,X_INTRODUCED_28_,X_INTRODUCED_29_,X_INTRODUCED_30_,X_INTRODUCED_31_,X_INTRODUCED_32_,X_INTRODUCED_33_,X_INTRODUCED_34_,X_INTRODUCED_35_,X_INTRODUCED_36_,X_INTRODUCED_37_,X_INTRODUCED_38_,X_INTRODUCED_39_,X_INTRODUCED_40_,X_INTRODUCED_41_,X_INTRODUCED_42_,X_INTRODUCED_43_,X_INTRODUCED_44_,X_INTRODUCED_45_,X_INTRODUCED_46_,X_INTRODUCED_47_,X_INTRODUCED_48_,X_INTRODUCED_49_,X_INTRODUCED_50_,X_INTRODUCED_51_,X_INTRODUCED_52_,X_INTRODUCED_53_,X_INTRODUCED_54_,X_INTRODUCED_55_,X_INTRODUCED_56_,X_INTRODUCED_57_,X_INTRODUCED_58_,X_INTRODUCED_59_,X_INTRODUCED_60_,X_INTRODUCED_61_,X_INTRODUCED_62_,X_INTRODUCED_63_,X_INTRODUCED_64_,X_INTRODUCED_65_,X_INTRODUCED_66_,X_INTRODUCED_67_,X_INTRODUCED_68_,X_INTRODUCED_69_,X_INTRODUCED_70_,X_INTRODUCED_71_,X_INTRODUCED_72_,X_INTRODUCED_73_,X_INTRODUCED_74_,X_INTRODUCED_75_,X_INTRODUCED_76_,X_INTRODUCED_77_,X_INTRODUCED_78_,X_INTRODUCED_79_,X_INTRODUCED_80_,X_INTRODUCED_81_,X_INTRODUCED_82_,X_INTRODUCED_83_,X_INTRODUCED_84_,X_INTRODUCED_85_,X_INTRODUCED_86_,X_INTRODUCED_87_,X_INTRODUCED_88_,X_INTRODUCED_89_,X_INTRODUCED_90_,X_INTRODUCED_91_,X_INTRODUCED_92_,X_INTRODUCED_93_,X_INTRODUCED_94_,X_INTRODUCED_95_,X_INTRODUCED_96_,X_INTRODUCED_97_,X_INTRODUCED_98_,X_INTRODUCED_99_,X_INTRODUCED_100_,X_INTRODUCED_101_,X_INTRODUCED_102_,X_INTRODUCED_103_,X_INTRODUCED_104_];
array [1..106] of var int: X_INTRODUCED_317_ ::var_is_introduced  = [objective,X_INTRODUCED_0_,X_INTRODUCED_1_,X_INTRODUCED_2_,X_INTRODUCED_3_,X_INTRODUCED_4_,X_INTRODUCED_5_,X_INTRODUCED_6_,X_INTRODUCED_7_,X_INTRODUCED_8_,X_INTRODUCED_9_,X_INTRODUCED_10_,X_INTRODUCED_11_,X_INTRODUCED_12_,X_INTRODUCED_13_,X_INTRODUCED_14_,X_INTRODUCED_15_,X_INTRODUCED_16_,X_INTRODUCED_17_,X_INTRODUCED_18_,X_INTRODUCED_19_,X_INTRODUCED_20_,X_INTRODUCED_21_,X_INTRODUCED_22_,X_INTRODUCED_23_,X_INTRODUCED_24_,X_INTRODUCED_25_,X_INTRODUCED_26_,X_INTRODUCED_27_,X_INTRODUCED_28_,X_INTRODUCED_29_,X_INTRODUCED_30_,X_INTRODUCED_31_,X_INTRODUCED_32_,X_INTRODUCED_33_,X_INTRODUCED_34_,X_INTRODUCED_35_,X_INTRODUCED_36_,X_INTRODUCED_37_,X_INTRODUCED_38_,X_INTRODUCED_39_,X_INTRODUCED_40_,X_INTRODUCED_41_,X_INTRODUCED_42_,X_INTRODUCED_43_,X_INTRODUCED_44_,X_INTRODUCED_45_,X_INTRODUCED_46_,X_INTRODUCED_47_,X_INTRODUCED_48_,X_INTRODUCED_49_,X_INTRODUCED_50_,X_INTRODUCED_51_,X_INTRODUCED_52_,X_INTRODUCED_53_,X_INTRODUCED_54_,X_INTRODUCED_55_,X_INTRODUCED_56_,X_INTRODUCED_57_,X_INTRODUCED_58_,X_INTRODUCED_59_,X_INTRODUCED_60_,X_INTRODUCED_61_,X_INTRODUCED_62_,X_INTRODUCED_63_,X_INTRODUCED_64_,X_INTRODUCED_65_,X_INTRODUCED_66_,X_INTRODUCED_67_,X_INTRODUCED_68_,X_INTRODUCED_69_,X_INTRODUCED_70_,X_INTRODUCED_71_,X_INTRODUCED_72_,X_INTRODUCED_73_,X_INTRODUCED_74_,X_INTRODUCED_75_,X_INTRODUCED_76_,X_INTRODUCED_77_,X_INTRODUCED_78_,X_INTRODUCED_79_,X_INTRODUCED_80_,X_INTRODUCED_81_,X_INTRODUCED_82_,X_INTRODUCED_83_,X_INTRODUCED_84_,X_INTRODUCED_85_,X_INTRODUCED_86_,X_INTRODUCED_87_,X_INTRODUCED_88_,X_INTRODUCED_89_,X_INTRODUCED_90_,X_INTRODUCED_91_,X_INTRODUCED_92_,X_INTRODUCED_93_,X_INTRODUCED_94_,X_INTRODUCED_95_,X_INTRODUCED_96_,X_INTRODUCED_97_,X_INTRODUCED_98_,X_INTRODUCED_99_,X_INTRODUCED_100_,X_INTRODUCED_101_,X_INTRODUCED_102_,X_INTRODUCED_103_,X_INTRODUCED_104_];
constraint int_lin_eq(X_INTRODUCED_318_,X_INTRODUCED_317_,0):: defines_var(objective);
constraint knapsackChoco(X_INTRODUCED_319_,X_INTRODUCED_320_,x,X_INTRODUCED_105_,624319);
constraint knapsackChoco(X_INTRODUCED_321_,X_INTRODUCED_320_,x,X_INTRODUCED_106_,624319);
solve :: int_search(x,input_order,indomain_max,complete) maximize objective;
